c CNF encoding of the claim that there is a graph of 8 vertices
c with no independent set of size 3 and no clique of size 4
c Generated with `cnfgen` (C) Massimo Lauria <lauria@kth.se>
c https://github.com/MassimoLauria/cnfgen.git
p cnf 28 126
1 2 3 0
1 4 5 0
1 6 7 0
1 8 9 0
1 10 11 0
1 12 13 0
2 4 14 0
2 6 15 0
2 8 16 0
2 10 17 0
2 12 18 0
4 6 19 0
4 8 20 0
4 10 21 0
4 12 22 0
6 8 23 0
6 10 24 0
6 12 25 0
8 10 26 0
8 12 27 0
10 12 28 0
3 5 14 0
3 7 15 0
3 9 16 0
3 11 17 0
3 13 18 0
5 7 19 0
5 9 20 0
5 11 21 0
5 13 22 0
7 9 23 0
7 11 24 0
7 13 25 0
9 11 26 0
9 13 27 0
11 13 28 0
14 15 19 0
14 16 20 0
14 17 21 0
14 18 22 0
15 16 23 0
15 17 24 0
15 18 25 0
16 17 26 0
16 18 27 0
17 18 28 0
19 20 23 0
19 21 24 0
19 22 25 0
20 21 26 0
20 22 27 0
21 22 28 0
23 24 26 0
23 25 27 0
24 25 28 0
26 27 28 0
-1 -2 -4 -3 -5 -14 0
-1 -2 -6 -3 -7 -15 0
-1 -2 -8 -3 -9 -16 0
-1 -2 -10 -3 -11 -17 0
-1 -2 -12 -3 -13 -18 0
-1 -4 -6 -5 -7 -19 0
-1 -4 -8 -5 -9 -20 0
-1 -4 -10 -5 -11 -21 0
-1 -4 -12 -5 -13 -22 0
-1 -6 -8 -7 -9 -23 0
-1 -6 -10 -7 -11 -24 0
-1 -6 -12 -7 -13 -25 0
-1 -8 -10 -9 -11 -26 0
-1 -8 -12 -9 -13 -27 0
-1 -10 -12 -11 -13 -28 0
-2 -4 -6 -14 -15 -19 0
-2 -4 -8 -14 -16 -20 0
-2 -4 -10 -14 -17 -21 0
-2 -4 -12 -14 -18 -22 0
-2 -6 -8 -15 -16 -23 0
-2 -6 -10 -15 -17 -24 0
-2 -6 -12 -15 -18 -25 0
-2 -8 -10 -16 -17 -26 0
-2 -8 -12 -16 -18 -27 0
-2 -10 -12 -17 -18 -28 0
-4 -6 -8 -19 -20 -23 0
-4 -6 -10 -19 -21 -24 0
-4 -6 -12 -19 -22 -25 0
-4 -8 -10 -20 -21 -26 0
-4 -8 -12 -20 -22 -27 0
-4 -10 -12 -21 -22 -28 0
-6 -8 -10 -23 -24 -26 0
-6 -8 -12 -23 -25 -27 0
-6 -10 -12 -24 -25 -28 0
-8 -10 -12 -26 -27 -28 0
-3 -5 -7 -14 -15 -19 0
-3 -5 -9 -14 -16 -20 0
-3 -5 -11 -14 -17 -21 0
-3 -5 -13 -14 -18 -22 0
-3 -7 -9 -15 -16 -23 0
-3 -7 -11 -15 -17 -24 0
-3 -7 -13 -15 -18 -25 0
-3 -9 -11 -16 -17 -26 0
-3 -9 -13 -16 -18 -27 0
-3 -11 -13 -17 -18 -28 0
-5 -7 -9 -19 -20 -23 0
-5 -7 -11 -19 -21 -24 0
-5 -7 -13 -19 -22 -25 0
-5 -9 -11 -20 -21 -26 0
-5 -9 -13 -20 -22 -27 0
-5 -11 -13 -21 -22 -28 0
-7 -9 -11 -23 -24 -26 0
-7 -9 -13 -23 -25 -27 0
-7 -11 -13 -24 -25 -28 0
-9 -11 -13 -26 -27 -28 0
-14 -15 -16 -19 -20 -23 0
-14 -15 -17 -19 -21 -24 0
-14 -15 -18 -19 -22 -25 0
-14 -16 -17 -20 -21 -26 0
-14 -16 -18 -20 -22 -27 0
-14 -17 -18 -21 -22 -28 0
-15 -16 -17 -23 -24 -26 0
-15 -16 -18 -23 -25 -27 0
-15 -17 -18 -24 -25 -28 0
-16 -17 -18 -26 -27 -28 0
-19 -20 -21 -23 -24 -26 0
-19 -20 -22 -23 -25 -27 0
-19 -21 -22 -24 -25 -28 0
-20 -21 -22 -26 -27 -28 0
-23 -24 -25 -26 -27 -28 0
